\ENCODING=ISO-8859-1
\Problem name: resolve second problem

Minimize
 obj:
Subject To
 c1:  - u_1 + a_0 >= 0
 c2:  - u_2 + a_1 >= 0
 c3:  - u_3 + a_2 >= 0
 c4:  - u_4 + a_3 >= 0
 c5:  - u_0 - u_5 + a_4 >= 0
 c6:  13 u_1 + 12 u_2 + 3 u_3 - u_4 + 4 u_5 + a_5 >= 0
 c7:  - 12 u_1 + u_2 - 10 u_3 - 5 u_4 + 14 u_5 + a_6 >= 0
 c8:  - 15 u_1 - 15 u_2 + 14 u_3 + 13 u_4 - 6 u_5 + a_7 >= 0
 c9:  10 u_1 + 9 u_2 + 10 u_3 - 8 u_4 + 11 u_5 + a_8 >= 0
 c10: - 16 u_1 - 7 u_2 - 17 u_3 + 17 u_4 + 17 u_5 + a_9 >= 0
 c11: 36 u_0 + 21 u_1 + 5 u_2 + 29 u_3 + 7 u_4 + 12 u_5 - b >= 0
 c12: a_0 - v_1 >= 0
 c13: a_1 - v_2 >= 0
 c14: a_2 - v_3 >= 0
 c15: a_3 - v_4 >= 0
 c16: a_4 - v_0 - v_5 >= 0
 c17: a_5 + 13 v_1 + 12 v_2 + 3 v_3 - v_4 + 4 v_5 >= 0
 c18: a_6 - 12 v_1 + v_2 - 10 v_3 - 5 v_4 + 14 v_5 >= 0
 c19: a_7 - 15 v_1 - 15 v_2 + 14 v_3 + 13 v_4 - 6 v_5 >= 0
 c20: a_8 + 10 v_1 + 9 v_2 + 10 v_3 - 8 v_4 + 11 v_5 >= 0
 c21: a_9 - 16 v_1 - 7 v_2 - 17 v_3 + 17 v_4 + 17 v_5 >= 0
 c22: - b + 37 v_0 + 21 v_1 + 5 v_2 + 29 v_3 + 7 v_4 + 12 v_5 >= 0
 c23: u_1 + a_0 - 13 a_5 + 12 a_6 + 15 a_7 - 10 a_8 + 16 a_9 + 21 b + v_1
       = 2441.52544124662
 c24: u_2 + a_1 - 12 a_5 - a_6 + 15 a_7 - 9 a_8 + 7 a_9 + 5 b + v_2
       = 616.779615201145
 c25: u_3 + a_2 - 3 a_5 + 10 a_6 - 14 a_7 - 10 a_8 + 17 a_9 + 29 b + v_3
       = 3159.92176816664
 c26: u_4 + a_3 + a_5 + 5 a_6 - 13 a_7 + 8 a_8 - 17 a_9 + 7 b + v_4
       = 700.545396724439
 c27: u_5 + a_4 - 4 a_5 - 14 a_6 + 6 a_7 - 11 a_8 - 17 a_9 + 12 b + v_5
       = 1187.07695977103
 c28: - u_2 + a_1  = 0
 c29: - u_3 + a_2  = 0
 c30: - u_0 - u_5 + a_4  = 0
 c31: - 12 u_1 + u_2 - 10 u_3 - 5 u_4 + 14 u_5 + a_6  = 0
 c32: - 15 u_1 - 15 u_2 + 14 u_3 + 13 u_4 - 6 u_5 + a_7  = 0
 c33: - 16 u_1 - 7 u_2 - 17 u_3 + 17 u_4 + 17 u_5 + a_9  = 0
 c34: 36 u_0 + 21 u_1 + 5 u_2 + 29 u_3 + 7 u_4 + 12 u_5 - b  = 0
 c35: a_1 - v_2  = 0
 c36: a_2 - v_3  = 0
 c37: a_4 - v_0 - v_5  = 0
 c38: a_6 - 12 v_1 + v_2 - 10 v_3 - 5 v_4 + 14 v_5  = 0
 c39: a_8 + 10 v_1 + 9 v_2 + 10 v_3 - 8 v_4 + 11 v_5  = 0
 c40: a_9 - 16 v_1 - 7 v_2 - 17 v_3 + 17 v_4 + 17 v_5  = 0
 c41: - u_4 + a_3  = 0
 c42: - u_1 + a_0  = 0
 c43: - b + 37 v_0 + 21 v_1 + 5 v_2 + 29 v_3 + 7 v_4 + 12 v_5  = 0
 c44: 10 u_1 + 9 u_2 + 10 u_3 - 8 u_4 + 11 u_5 + a_8  = 0
 c45: 34 u_0 + 4 u_2 + 28 u_3 + 22 u_4 + 51 u_5 + 2 a_0 + 2 a_1 + 2 a_2 + 2 a_3
      + 2 a_4 + 2 a_5 + 2 a_6 + 2 a_7 + 2 a_8 + 2 a_9 - 2 b + 37 v_0 + 4 v_2
      + 28 v_3 + 22 v_4 + 51 v_5  = 408.437907457473
Bounds
 -Inf <= u_0 <= 0
      u_1 Free
      u_2 Free
      u_3 Free
      u_4 Free
      u_5 Free
      a_0 Free
      a_1 Free
      a_2 Free
      a_3 Free
      a_4 Free
      a_5 Free
      a_6 Free
      a_7 Free
      a_8 Free
      a_9 Free
      b Free
      v_1 Free
      v_2 Free
      v_3 Free
      v_4 Free
      v_5 Free
End
